# importing topologies: step 02. mixing data file with create_atoms

units real
atom_style full
boundary p p p
newton on on

# LAMMPS supports executing shell script commands.
shell rm data.wplusa

# we will use this to generate a data file for two SPC/E water molecules inline
###############################################################################

# the first line of a data file is ignored => use it for a description
shell echo "LAMMPS datafile for two SPC/E water generated inline" > data.wplusa

# the header segment describes the numbers of entities and the box
shell echo " 6 atoms"  >> data.wplusa
shell echo " 4 bonds"  >> data.wplusa
shell echo " 2 angles" >> data.wplusa
shell echo "" >> data.wplusa

# reserve space for another atom type (Argon LJ atoms) to be added later
shell echo " 3 atom types" >> data.wplusa
shell echo " 1 bond types" >> data.wplusa
shell echo " 1 angle types" >> data.wplusa
shell echo "" >> data.wplusa
shell echo "-10.0  10.0  xlo xhi" >> data.wplusa
shell echo "-10.0  10.0  ylo yhi" >> data.wplusa
shell echo "-10.0  10.0  zlo zhi" >> data.wplusa
shell echo "" >> data.wplusa

# always add one empty line after a section header, as that line is ignored
shell echo "Masses" >> data.wplusa
shell echo "" >> data.wplusa
shell echo "1  1.00794" >> data.wplusa
shell echo "2 15.9994"  >> data.wplusa
# we need to set the mass for argon, too. even though we do not use it yet.
shell echo "3 39.948002"  >> data.wplusa
shell echo "" >> data.wplusa

# the format of the atoms section depends on the atom style. we use "full"
# the columns are then: ID MolID Type Charge X Y Z [ix iy iz]
shell echo "Atoms" >> data.wplusa
shell echo "" >> data.wplusa
shell echo " 1  1  2 -0.8472  3.18866 1.92022 1.25228  0 0 0" >> data.wplusa
shell echo " 2  1  1  0.4236  3.95739 2.04883 1.87873  0 0 0" >> data.wplusa
shell echo " 3  1  1  0.4236  2.56934 1.22782 1.62238  0 0 0" >> data.wplusa
# this molecule has passed through the box once in x and once in y direction
shell echo " 4  2  2 -0.8472  0.97785 8.01694 8.99862  1 1 0" >> data.wplusa
shell echo " 5  2  1  0.4236  1.85940 8.12605 8.53940  1 1 0" >> data.wplusa
shell echo " 6  2  1  0.4236  0.38758 8.79268 8.77566  1 1 0" >> data.wplusa
shell echo "" >> data.wplusa

# the format for bonds is: BondID Type AtomID AtomID
shell echo "Bonds" >> data.wplusa
shell echo "" >> data.wplusa
shell echo "1 1  1 2" >> data.wplusa
shell echo "2 1  1 3" >> data.wplusa
shell echo "3 1  4 5" >> data.wplusa
shell echo "4 1  4 6" >> data.wplusa
shell echo "" >> data.wplusa

# the format for angles is: AngleID Type AtomID AtomID AtomID
# central atom (here the oxygen) is in the middle.
shell echo "Angles" >> data.wplusa
shell echo "" >> data.wplusa
shell echo "1 1  2 1 3" >> data.wplusa
shell echo "2 1  5 4 6" >> data.wplusa
shell echo "" >> data.wplusa

# the special_bonds command controls exclusions
special_bonds lj/coul 0.0 0.0 1.0   # this is the default for molecular systems

# read data and define box
read_data data.wplusa

# force field styles
pair_style   lj/cut/coul/long 14.0
bond_style   harmonic
angle_style  harmonic
kspace_style ewald 1.0e-6

# force field parameters
pair_coeff  1 *  0.00000 0.0000  # no LJ on 1 1 and 1 2
pair_coeff  2 2  0.15535 3.166
pair_coeff  3 3  0.2379  3.405
# generate the missing parameters from mixing
pair_modify mix geometric

# the force constants here are bogus, this is a rigid potential requiring SHAKE
# we only need to specify them so SHAKE knows the bond length and angle
bond_coeff  1  1000.0  1.0
angle_coeff 1   100.0  109.47 

# force field is complete. set up MD now.

fix f1 all shake 0.00001 100 0 b 1 a 1 # constraint bond type 1 and angle type 1
fix f2 all nve

# need to use the velocity command _after_ fix shake, so the #DOFs is correct
velocity  all create 300 666666

thermo 100

run 1000

# now we flood the simulation box with argon atoms.
lattice fcc 5.0
create_atoms 3 box

# argon atoms are now overlapping with water. delete the overlaps
group water type 1 2
group argon type 3
delete_atoms overlap 3.0 argon water

# set kinetic energy for argon atoms
velocity argon create 300 888888 loop local

reset_timestep 0
dump d1 all image 10 snap-movie.*.ppm element element
dump_modify d1 element H O Ar pad 5

run 2000
